NAME RRP
OBJSENSE MAX
ROWS
 N  OBJ
 E  R0      
 E  R1      
 E  R2      
 E  R3      
 E  R4      
 E  R5      
 E  R6      
 E  R7      
 E  R8      
 E  R9      
 E  R10     
 E  R11     
 E  R12     
 E  R13     
 L  R14     
 L  R15     
 L  R16     
 L  R17     
 L  R18     
 L  R19     
 L  R20     
 L  R21     
 E  R22     
 E  R23     
 L  R24     
 L  R25     
 L  R26     
 L  R27     
 L  R28     
 L  R29     
 L  R30     
 L  R31     
 L  R32     
 L  R33     
 L  R34     
 L  R35     
 L  R36     
 L  R37     
 L  R38     
 L  R39     
 L  R40     
 L  R41     
 L  R42     
 L  R43     
 L  R44     
 L  R45     
 L  R46     
 L  R47     
 L  R48     
 L  R49     
 L  R50     
 L  R51     
 L  R52     
 L  R53     
 L  R54     
 L  R55     
 L  R56     
 L  R57     
 L  R58     
 L  R59     
 L  R60     
 L  R61     
 L  R62     
 L  R63     
 L  R64     
 L  R65     
 L  R66     
 L  R67     
 L  R68     
 L  R69     
 L  R70     
 L  R71     
 L  R72     
 L  R73     
 L  R74     
 L  R75     
 L  R76     
 L  R77     
 L  R78     
 L  R79     
 L  R80     
 L  R81     
 L  R82     
 G  R83     
 G  R84     
 G  R85     
 L  R86     
 L  R87     
 L  R88     
 G  R89     
 L  R90     
 L  R91     
 L  R92     
 L  R93     
 L  R94     
 L  R95     
 G  qc0     
 G  qc1     
 G  qc2     
 G  qc3     
 G  qc4     
 G  qc5     
 G  qc6     
 G  qc7     
 G  qc8     
 L  qc9     
 L  qc10    
 L  qc11    
 L  qc12    
 L  qc13    
 L  qc14    
 L  qc15    
 L  qc16    
 L  qc17    
COLUMNS
    MARKER    'MARKER'                 'INTORG'
    x_kij[0,0,1]  R0        1
    x_kij[0,0,1]  R2        -1
    x_kij[0,0,1]  R15       1
    x_kij[0,0,1]  R27       1000
    x_kij[0,0,2]  R0        1
    x_kij[0,0,2]  R3        -1
    x_kij[0,0,2]  R16       1
    x_kij[0,0,2]  R28       1000
    x_kij[0,0,3]  R0        1
    x_kij[0,0,3]  R4        -1
    x_kij[0,0,3]  R17       1
    x_kij[0,0,3]  R29       1000
    x_kij[0,0,4]  R5        -1
    x_kij[0,0,4]  R18       1
    x_kij[0,0,4]  R30       1000
    x_kij[0,0,5]  R6        -1
    x_kij[0,0,5]  R19       1
    x_kij[0,0,5]  R31       1000
    x_kij[0,0,6]  R7        -1
    x_kij[0,0,6]  R20       1
    x_kij[0,0,6]  R32       1000
    x_kij[0,0,7]  R0        1
    x_kij[0,0,7]  R1        1
    x_kij[0,0,7]  R21       1
    x_kij[0,0,7]  R33       1000
    x_kij[0,1,0]  R8        1
    x_kij[0,1,0]  R11       1
    x_kij[0,1,0]  R14       1
    x_kij[0,1,0]  R22       1
    x_kij[0,1,0]  R34       1000
    x_kij[0,1,0]  R95       1
    x_kij[0,1,2]  R2        1
    x_kij[0,1,2]  R3        -1
    x_kij[0,1,2]  R8        1
    x_kij[0,1,2]  R11       1
    x_kij[0,1,2]  R16       1
    x_kij[0,1,2]  R35       1000
    x_kij[0,1,2]  R95       1
    x_kij[0,1,3]  R2        1
    x_kij[0,1,3]  R4        -1
    x_kij[0,1,3]  R8        1
    x_kij[0,1,3]  R11       1
    x_kij[0,1,3]  R17       1
    x_kij[0,1,3]  R36       1000
    x_kij[0,1,3]  R95       1
    x_kij[0,1,4]  R2        1
    x_kij[0,1,4]  R5        -1
    x_kij[0,1,4]  R8        1
    x_kij[0,1,4]  R11       1
    x_kij[0,1,4]  R18       1
    x_kij[0,1,4]  R37       1000
    x_kij[0,1,4]  R95       1
    x_kij[0,1,4]  qc0       1.8110770276274835e+01
    x_kij[0,1,4]  qc9       1.8110770276274835e+01
    x_kij[0,1,5]  R2        1
    x_kij[0,1,5]  R6        -1
    x_kij[0,1,5]  R8        1
    x_kij[0,1,5]  R11       1
    x_kij[0,1,5]  R19       1
    x_kij[0,1,5]  R38       1000
    x_kij[0,1,5]  R95       1
    x_kij[0,1,5]  qc1       20.8806130178211
    x_kij[0,1,5]  qc10      20.8806130178211
    x_kij[0,1,6]  R2        1
    x_kij[0,1,6]  R7        -1
    x_kij[0,1,6]  R8        1
    x_kij[0,1,6]  R11       1
    x_kij[0,1,6]  R20       1
    x_kij[0,1,6]  R39       1000
    x_kij[0,1,6]  R95       1
    x_kij[0,1,6]  qc2       2.9120439557122072e+01
    x_kij[0,1,6]  qc11      2.9120439557122072e+01
    x_kij[0,1,7]  R2        1
    x_kij[0,1,7]  R8        1
    x_kij[0,1,7]  R11       1
    x_kij[0,1,7]  R21       1
    x_kij[0,1,7]  R40       1000
    x_kij[0,1,7]  R95       1
    x_kij[0,2,0]  R9        1
    x_kij[0,2,0]  R12       1
    x_kij[0,2,0]  R14       1
    x_kij[0,2,0]  R22       1
    x_kij[0,2,0]  R41       1000
    x_kij[0,2,0]  R95       1
    x_kij[0,2,1]  R2        -1
    x_kij[0,2,1]  R3        1
    x_kij[0,2,1]  R9        1
    x_kij[0,2,1]  R12       1
    x_kij[0,2,1]  R15       1
    x_kij[0,2,1]  R42       1000
    x_kij[0,2,1]  R95       1
    x_kij[0,2,3]  R3        1
    x_kij[0,2,3]  R4        -1
    x_kij[0,2,3]  R9        1
    x_kij[0,2,3]  R12       1
    x_kij[0,2,3]  R17       1
    x_kij[0,2,3]  R43       1000
    x_kij[0,2,3]  R95       1
    x_kij[0,2,4]  R3        1
    x_kij[0,2,4]  R5        -1
    x_kij[0,2,4]  R9        1
    x_kij[0,2,4]  R12       1
    x_kij[0,2,4]  R18       1
    x_kij[0,2,4]  R44       1000
    x_kij[0,2,4]  R95       1
    x_kij[0,2,4]  qc3       1.8439088914585774e+01
    x_kij[0,2,4]  qc12      1.8439088914585774e+01
    x_kij[0,2,5]  R3        1
    x_kij[0,2,5]  R6        -1
    x_kij[0,2,5]  R9        1
    x_kij[0,2,5]  R12       1
    x_kij[0,2,5]  R19       1
    x_kij[0,2,5]  R45       1000
    x_kij[0,2,5]  R95       1
    x_kij[0,2,5]  qc4       1.6492422502470642e+01
    x_kij[0,2,5]  qc13      1.6492422502470642e+01
    x_kij[0,2,6]  R3        1
    x_kij[0,2,6]  R7        -1
    x_kij[0,2,6]  R9        1
    x_kij[0,2,6]  R12       1
    x_kij[0,2,6]  R20       1
    x_kij[0,2,6]  R46       1000
    x_kij[0,2,6]  R95       1
    x_kij[0,2,6]  qc5       2.4083189157584592e+01
    x_kij[0,2,6]  qc14      2.4083189157584592e+01
    x_kij[0,2,7]  R3        1
    x_kij[0,2,7]  R9        1
    x_kij[0,2,7]  R12       1
    x_kij[0,2,7]  R21       1
    x_kij[0,2,7]  R47       1000
    x_kij[0,2,7]  R95       1
    x_kij[0,3,0]  R10       1
    x_kij[0,3,0]  R13       1
    x_kij[0,3,0]  R14       1
    x_kij[0,3,0]  R22       1
    x_kij[0,3,0]  R48       1000
    x_kij[0,3,0]  R95       1
    x_kij[0,3,1]  R2        -1
    x_kij[0,3,1]  R4        1
    x_kij[0,3,1]  R10       1
    x_kij[0,3,1]  R13       1
    x_kij[0,3,1]  R15       1
    x_kij[0,3,1]  R49       1000
    x_kij[0,3,1]  R95       1
    x_kij[0,3,2]  R3        -1
    x_kij[0,3,2]  R4        1
    x_kij[0,3,2]  R10       1
    x_kij[0,3,2]  R13       1
    x_kij[0,3,2]  R16       1
    x_kij[0,3,2]  R50       1000
    x_kij[0,3,2]  R95       1
    x_kij[0,3,4]  R4        1
    x_kij[0,3,4]  R5        -1
    x_kij[0,3,4]  R10       1
    x_kij[0,3,4]  R13       1
    x_kij[0,3,4]  R18       1
    x_kij[0,3,4]  R51       1000
    x_kij[0,3,4]  R95       1
    x_kij[0,3,4]  qc6       1.0770329614269007e+01
    x_kij[0,3,4]  qc15      1.0770329614269007e+01
    x_kij[0,3,5]  R4        1
    x_kij[0,3,5]  R6        -1
    x_kij[0,3,5]  R10       1
    x_kij[0,3,5]  R13       1
    x_kij[0,3,5]  R19       1
    x_kij[0,3,5]  R52       1000
    x_kij[0,3,5]  R95       1
    x_kij[0,3,5]  qc7       1.2649110640673518e+01
    x_kij[0,3,5]  qc16      1.2649110640673518e+01
    x_kij[0,3,6]  R4        1
    x_kij[0,3,6]  R7        -1
    x_kij[0,3,6]  R10       1
    x_kij[0,3,6]  R13       1
    x_kij[0,3,6]  R20       1
    x_kij[0,3,6]  R53       1000
    x_kij[0,3,6]  R95       1
    x_kij[0,3,6]  qc8       20.8806130178211
    x_kij[0,3,6]  qc17      20.8806130178211
    x_kij[0,3,7]  R4        1
    x_kij[0,3,7]  R10       1
    x_kij[0,3,7]  R13       1
    x_kij[0,3,7]  R21       1
    x_kij[0,3,7]  R54       1000
    x_kij[0,3,7]  R95       1
    x_kij[0,4,0]  R14       1
    x_kij[0,4,0]  R22       1
    x_kij[0,4,0]  R55       1000
    x_kij[0,4,1]  R2        -1
    x_kij[0,4,1]  R5        1
    x_kij[0,4,1]  R15       1
    x_kij[0,4,1]  R56       1000
    x_kij[0,4,2]  R3        -1
    x_kij[0,4,2]  R5        1
    x_kij[0,4,2]  R16       1
    x_kij[0,4,2]  R57       1000
    x_kij[0,4,3]  R4        -1
    x_kij[0,4,3]  R5        1
    x_kij[0,4,3]  R17       1
    x_kij[0,4,3]  R58       1000
    x_kij[0,4,5]  R5        1
    x_kij[0,4,5]  R6        -1
    x_kij[0,4,5]  R8        -1
    x_kij[0,4,5]  R19       1
    x_kij[0,4,5]  R59       1000
    x_kij[0,4,6]  R5        1
    x_kij[0,4,6]  R7        -1
    x_kij[0,4,6]  R8        -1
    x_kij[0,4,6]  R20       1
    x_kij[0,4,6]  R60       1000
    x_kij[0,4,7]  R1        1
    x_kij[0,4,7]  R5        1
    x_kij[0,4,7]  R8        -1
    x_kij[0,4,7]  R21       1
    x_kij[0,4,7]  R61       1000
    x_kij[0,5,0]  R14       1
    x_kij[0,5,0]  R22       1
    x_kij[0,5,0]  R62       1000
    x_kij[0,5,1]  R2        -1
    x_kij[0,5,1]  R6        1
    x_kij[0,5,1]  R15       1
    x_kij[0,5,1]  R63       1000
    x_kij[0,5,2]  R3        -1
    x_kij[0,5,2]  R6        1
    x_kij[0,5,2]  R16       1
    x_kij[0,5,2]  R64       1000
    x_kij[0,5,3]  R4        -1
    x_kij[0,5,3]  R6        1
    x_kij[0,5,3]  R17       1
    x_kij[0,5,3]  R65       1000
    x_kij[0,5,4]  R5        -1
    x_kij[0,5,4]  R6        1
    x_kij[0,5,4]  R9        -1
    x_kij[0,5,4]  R18       1
    x_kij[0,5,4]  R66       1000
    x_kij[0,5,6]  R6        1
    x_kij[0,5,6]  R7        -1
    x_kij[0,5,6]  R9        -1
    x_kij[0,5,6]  R20       1
    x_kij[0,5,6]  R67       1000
    x_kij[0,5,7]  R1        1
    x_kij[0,5,7]  R6        1
    x_kij[0,5,7]  R9        -1
    x_kij[0,5,7]  R21       1
    x_kij[0,5,7]  R68       1000
    x_kij[0,6,0]  R14       1
    x_kij[0,6,0]  R22       1
    x_kij[0,6,0]  R69       1000
    x_kij[0,6,1]  R2        -1
    x_kij[0,6,1]  R7        1
    x_kij[0,6,1]  R15       1
    x_kij[0,6,1]  R70       1000
    x_kij[0,6,2]  R3        -1
    x_kij[0,6,2]  R7        1
    x_kij[0,6,2]  R16       1
    x_kij[0,6,2]  R71       1000
    x_kij[0,6,3]  R4        -1
    x_kij[0,6,3]  R7        1
    x_kij[0,6,3]  R17       1
    x_kij[0,6,3]  R72       1000
    x_kij[0,6,4]  R5        -1
    x_kij[0,6,4]  R7        1
    x_kij[0,6,4]  R10       -1
    x_kij[0,6,4]  R18       1
    x_kij[0,6,4]  R73       1000
    x_kij[0,6,5]  R6        -1
    x_kij[0,6,5]  R7        1
    x_kij[0,6,5]  R10       -1
    x_kij[0,6,5]  R19       1
    x_kij[0,6,5]  R74       1000
    x_kij[0,6,7]  R1        1
    x_kij[0,6,7]  R7        1
    x_kij[0,6,7]  R10       -1
    x_kij[0,6,7]  R21       1
    x_kij[0,6,7]  R75       1000
    x_kij[0,7,0]  R14       1
    x_kij[0,7,0]  R22       1
    x_kij[0,7,0]  R23       1
    x_kij[0,7,0]  R76       1000
    x_kij[0,7,1]  R15       1
    x_kij[0,7,1]  R23       1
    x_kij[0,7,1]  R77       1000
    x_kij[0,7,2]  R16       1
    x_kij[0,7,2]  R23       1
    x_kij[0,7,2]  R78       1000
    x_kij[0,7,3]  R17       1
    x_kij[0,7,3]  R23       1
    x_kij[0,7,3]  R79       1000
    x_kij[0,7,4]  R18       1
    x_kij[0,7,4]  R23       1
    x_kij[0,7,4]  R80       1000
    x_kij[0,7,5]  R19       1
    x_kij[0,7,5]  R23       1
    x_kij[0,7,5]  R81       1000
    x_kij[0,7,6]  R20       1
    x_kij[0,7,6]  R23       1
    x_kij[0,7,6]  R82       1000
    z_i[1]    OBJ       1
    z_i[1]    R11       -1
    z_i[2]    OBJ       1
    z_i[2]    R12       -1
    z_i[3]    OBJ       1
    z_i[3]    R13       -1
    MARKER    'MARKER'                 'INTEND'
    t_ki[0,0]  R27       1
    t_ki[0,0]  R28       1
    t_ki[0,0]  R29       1
    t_ki[0,0]  R30       1
    t_ki[0,0]  R31       1
    t_ki[0,0]  R32       1
    t_ki[0,0]  R33       1
    t_ki[0,0]  R34       -1
    t_ki[0,0]  R41       -1
    t_ki[0,0]  R48       -1
    t_ki[0,0]  R55       -1
    t_ki[0,0]  R62       -1
    t_ki[0,0]  R69       -1
    t_ki[0,0]  R76       -1
    t_ki[0,0]  R94       -1
    t_ki[0,1]  R24       1
    t_ki[0,1]  R27       -1
    t_ki[0,1]  R34       1
    t_ki[0,1]  R35       1
    t_ki[0,1]  R36       1
    t_ki[0,1]  R37       1
    t_ki[0,1]  R38       1
    t_ki[0,1]  R39       1
    t_ki[0,1]  R40       1
    t_ki[0,1]  R42       -1
    t_ki[0,1]  R49       -1
    t_ki[0,1]  R56       -1
    t_ki[0,1]  R63       -1
    t_ki[0,1]  R70       -1
    t_ki[0,1]  R77       -1
    t_ki[0,1]  R91       -1
    t_ki[0,2]  R25       1
    t_ki[0,2]  R28       -1
    t_ki[0,2]  R35       -1
    t_ki[0,2]  R41       1
    t_ki[0,2]  R42       1
    t_ki[0,2]  R43       1
    t_ki[0,2]  R44       1
    t_ki[0,2]  R45       1
    t_ki[0,2]  R46       1
    t_ki[0,2]  R47       1
    t_ki[0,2]  R50       -1
    t_ki[0,2]  R57       -1
    t_ki[0,2]  R64       -1
    t_ki[0,2]  R71       -1
    t_ki[0,2]  R78       -1
    t_ki[0,2]  R92       -1
    t_ki[0,3]  R26       1
    t_ki[0,3]  R29       -1
    t_ki[0,3]  R36       -1
    t_ki[0,3]  R43       -1
    t_ki[0,3]  R48       1
    t_ki[0,3]  R49       1
    t_ki[0,3]  R50       1
    t_ki[0,3]  R51       1
    t_ki[0,3]  R52       1
    t_ki[0,3]  R53       1
    t_ki[0,3]  R54       1
    t_ki[0,3]  R58       -1
    t_ki[0,3]  R65       -1
    t_ki[0,3]  R72       -1
    t_ki[0,3]  R79       -1
    t_ki[0,3]  R93       -1
    t_ki[0,4]  R24       -1
    t_ki[0,4]  R30       -1
    t_ki[0,4]  R37       -1
    t_ki[0,4]  R44       -1
    t_ki[0,4]  R51       -1
    t_ki[0,4]  R55       1
    t_ki[0,4]  R56       1
    t_ki[0,4]  R57       1
    t_ki[0,4]  R58       1
    t_ki[0,4]  R59       1
    t_ki[0,4]  R60       1
    t_ki[0,4]  R61       1
    t_ki[0,4]  R66       -1
    t_ki[0,4]  R73       -1
    t_ki[0,4]  R80       -1
    t_ki[0,4]  R83       1
    t_ki[0,4]  R86       1
    t_ki[0,4]  R91       1
    t_ki[0,5]  R25       -1
    t_ki[0,5]  R31       -1
    t_ki[0,5]  R38       -1
    t_ki[0,5]  R45       -1
    t_ki[0,5]  R52       -1
    t_ki[0,5]  R59       -1
    t_ki[0,5]  R62       1
    t_ki[0,5]  R63       1
    t_ki[0,5]  R64       1
    t_ki[0,5]  R65       1
    t_ki[0,5]  R66       1
    t_ki[0,5]  R67       1
    t_ki[0,5]  R68       1
    t_ki[0,5]  R74       -1
    t_ki[0,5]  R81       -1
    t_ki[0,5]  R84       1
    t_ki[0,5]  R87       1
    t_ki[0,5]  R92       1
    t_ki[0,6]  R26       -1
    t_ki[0,6]  R32       -1
    t_ki[0,6]  R39       -1
    t_ki[0,6]  R46       -1
    t_ki[0,6]  R53       -1
    t_ki[0,6]  R60       -1
    t_ki[0,6]  R67       -1
    t_ki[0,6]  R69       1
    t_ki[0,6]  R70       1
    t_ki[0,6]  R71       1
    t_ki[0,6]  R72       1
    t_ki[0,6]  R73       1
    t_ki[0,6]  R74       1
    t_ki[0,6]  R75       1
    t_ki[0,6]  R82       -1
    t_ki[0,6]  R85       1
    t_ki[0,6]  R88       1
    t_ki[0,6]  R93       1
    t_ki[0,7]  R33       -1
    t_ki[0,7]  R40       -1
    t_ki[0,7]  R47       -1
    t_ki[0,7]  R54       -1
    t_ki[0,7]  R61       -1
    t_ki[0,7]  R68       -1
    t_ki[0,7]  R75       -1
    t_ki[0,7]  R76       1
    t_ki[0,7]  R77       1
    t_ki[0,7]  R78       1
    t_ki[0,7]  R79       1
    t_ki[0,7]  R80       1
    t_ki[0,7]  R81       1
    t_ki[0,7]  R82       1
    t_ki[0,7]  R89       1
    t_ki[0,7]  R90       1
    t_ki[0,7]  R94       1
RHS
    RHS1      R0        1
    RHS1      R1        1
    RHS1      R14       1
    RHS1      R15       1
    RHS1      R16       1
    RHS1      R17       1
    RHS1      R18       1
    RHS1      R19       1
    RHS1      R20       1
    RHS1      R21       1
    RHS1      R24       -1.8110770276274835e+01
    RHS1      R25       -1.6492422502470642e+01
    RHS1      R26       -20.8806130178211
    RHS1      R27       992.788897449072
    RHS1      R28       9.9105572809000080e+02
    RHS1      R29       9.8735088935932652e+02
    RHS1      R30       9.7659060017856075e+02
    RHS1      R31       976
    RHS1      R32       9.6793756091623720e+02
    RHS1      R33       9.6547464699673583e+02
    RHS1      R34       992.788897449072
    RHS1      R35       989.229670385731
    RHS1      R36       9.9175378874876469e+02
    RHS1      R37       9.8188922972372518e+02
    RHS1      R38       9.7911938698217887e+02
    RHS1      R39       970.879560442878
    RHS1      R40       970
    RHS1      R41       9.9105572809000080e+02
    RHS1      R42       989.229670385731
    RHS1      R43       9.9105572809000080e+02
    RHS1      R44       9.8156091108541420e+02
    RHS1      R45       9.8350757749752938e+02
    RHS1      R46       9.7591681084241543e+02
    RHS1      R47       9.7214322344563175e+02
    RHS1      R48       9.8735088935932652e+02
    RHS1      R49       9.9175378874876469e+02
    RHS1      R50       9.9105572809000080e+02
    RHS1      R51       989.229670385731
    RHS1      R52       9.8735088935932652e+02
    RHS1      R53       9.7911938698217887e+02
    RHS1      R54       9.7790927796562551e+02
    RHS1      R55       9.7659060017856075e+02
    RHS1      R56       9.8188922972372518e+02
    RHS1      R57       9.8156091108541420e+02
    RHS1      R58       989.229670385731
    RHS1      R59       9.9175378874876469e+02
    RHS1      R60       985.857864376269
    RHS1      R61       9.8783447493940355e+02
    RHS1      R62       976
    RHS1      R63       9.7911938698217887e+02
    RHS1      R64       9.8350757749752938e+02
    RHS1      R65       9.8735088935932652e+02
    RHS1      R66       9.9175378874876469e+02
    RHS1      R67       9.9175378874876469e+02
    RHS1      R68       9.8833809621030935e+02
    RHS1      R69       9.6793756091623720e+02
    RHS1      R70       970.879560442878
    RHS1      R71       9.7591681084241543e+02
    RHS1      R72       9.7911938698217887e+02
    RHS1      R73       985.857864376269
    RHS1      R74       9.9175378874876469e+02
    RHS1      R75       9.9175378874876469e+02
    RHS1      R76       9.6547464699673583e+02
    RHS1      R77       970
    RHS1      R78       9.7214322344563175e+02
    RHS1      R79       9.7790927796562551e+02
    RHS1      R80       9.8783447493940355e+02
    RHS1      R81       9.8833809621030935e+02
    RHS1      R82       9.9175378874876469e+02
    RHS1      R83       1
    RHS1      R86       100
    RHS1      R87       100
    RHS1      R88       200
    RHS1      R89       100
    RHS1      R90       1000
    RHS1      R91       10000
    RHS1      R92       10000
    RHS1      R93       10000
    RHS1      R94       10000
    RHS1      R95       4
    RHS1      qc0       1
    RHS1      qc3       1
    RHS1      qc6       1
    RHS1      qc9       100
    RHS1      qc10      100
    RHS1      qc11      200
    RHS1      qc12      100
    RHS1      qc13      100
    RHS1      qc14      200
    RHS1      qc15      100
    RHS1      qc16      100
    RHS1      qc17      200
BOUNDS
 BV BND1      x_kij[0,0,1]
 BV BND1      x_kij[0,0,2]
 BV BND1      x_kij[0,0,3]
 BV BND1      x_kij[0,0,4]
 BV BND1      x_kij[0,0,5]
 BV BND1      x_kij[0,0,6]
 BV BND1      x_kij[0,0,7]
 BV BND1      x_kij[0,1,0]
 BV BND1      x_kij[0,1,2]
 BV BND1      x_kij[0,1,3]
 BV BND1      x_kij[0,1,4]
 BV BND1      x_kij[0,1,5]
 BV BND1      x_kij[0,1,6]
 BV BND1      x_kij[0,1,7]
 BV BND1      x_kij[0,2,0]
 BV BND1      x_kij[0,2,1]
 BV BND1      x_kij[0,2,3]
 BV BND1      x_kij[0,2,4]
 BV BND1      x_kij[0,2,5]
 BV BND1      x_kij[0,2,6]
 BV BND1      x_kij[0,2,7]
 BV BND1      x_kij[0,3,0]
 BV BND1      x_kij[0,3,1]
 BV BND1      x_kij[0,3,2]
 BV BND1      x_kij[0,3,4]
 BV BND1      x_kij[0,3,5]
 BV BND1      x_kij[0,3,6]
 BV BND1      x_kij[0,3,7]
 BV BND1      x_kij[0,4,0]
 BV BND1      x_kij[0,4,1]
 BV BND1      x_kij[0,4,2]
 BV BND1      x_kij[0,4,3]
 BV BND1      x_kij[0,4,5]
 BV BND1      x_kij[0,4,6]
 BV BND1      x_kij[0,4,7]
 BV BND1      x_kij[0,5,0]
 BV BND1      x_kij[0,5,1]
 BV BND1      x_kij[0,5,2]
 BV BND1      x_kij[0,5,3]
 BV BND1      x_kij[0,5,4]
 BV BND1      x_kij[0,5,6]
 BV BND1      x_kij[0,5,7]
 BV BND1      x_kij[0,6,0]
 BV BND1      x_kij[0,6,1]
 BV BND1      x_kij[0,6,2]
 BV BND1      x_kij[0,6,3]
 BV BND1      x_kij[0,6,4]
 BV BND1      x_kij[0,6,5]
 BV BND1      x_kij[0,6,7]
 BV BND1      x_kij[0,7,0]
 BV BND1      x_kij[0,7,1]
 BV BND1      x_kij[0,7,2]
 BV BND1      x_kij[0,7,3]
 BV BND1      x_kij[0,7,4]
 BV BND1      x_kij[0,7,5]
 BV BND1      x_kij[0,7,6]
 BV BND1      z_i[1]  
 BV BND1      z_i[2]  
 BV BND1      z_i[3]  
QCMATRIX   qc0     
    x_kij[0,1,4]  t_ki[0,1]  0.5
    t_ki[0,1]  x_kij[0,1,4]  0.5
QCMATRIX   qc1     
    x_kij[0,1,5]  t_ki[0,1]  0.5
    t_ki[0,1]  x_kij[0,1,5]  0.5
QCMATRIX   qc2     
    x_kij[0,1,6]  t_ki[0,1]  0.5
    t_ki[0,1]  x_kij[0,1,6]  0.5
QCMATRIX   qc3     
    x_kij[0,2,4]  t_ki[0,2]  0.5
    t_ki[0,2]  x_kij[0,2,4]  0.5
QCMATRIX   qc4     
    x_kij[0,2,5]  t_ki[0,2]  0.5
    t_ki[0,2]  x_kij[0,2,5]  0.5
QCMATRIX   qc5     
    x_kij[0,2,6]  t_ki[0,2]  0.5
    t_ki[0,2]  x_kij[0,2,6]  0.5
QCMATRIX   qc6     
    x_kij[0,3,4]  t_ki[0,3]  0.5
    t_ki[0,3]  x_kij[0,3,4]  0.5
QCMATRIX   qc7     
    x_kij[0,3,5]  t_ki[0,3]  0.5
    t_ki[0,3]  x_kij[0,3,5]  0.5
QCMATRIX   qc8     
    x_kij[0,3,6]  t_ki[0,3]  0.5
    t_ki[0,3]  x_kij[0,3,6]  0.5
QCMATRIX   qc9     
    x_kij[0,1,4]  t_ki[0,1]  0.5
    t_ki[0,1]  x_kij[0,1,4]  0.5
QCMATRIX   qc10    
    x_kij[0,1,5]  t_ki[0,1]  0.5
    t_ki[0,1]  x_kij[0,1,5]  0.5
QCMATRIX   qc11    
    x_kij[0,1,6]  t_ki[0,1]  0.5
    t_ki[0,1]  x_kij[0,1,6]  0.5
QCMATRIX   qc12    
    x_kij[0,2,4]  t_ki[0,2]  0.5
    t_ki[0,2]  x_kij[0,2,4]  0.5
QCMATRIX   qc13    
    x_kij[0,2,5]  t_ki[0,2]  0.5
    t_ki[0,2]  x_kij[0,2,5]  0.5
QCMATRIX   qc14    
    x_kij[0,2,6]  t_ki[0,2]  0.5
    t_ki[0,2]  x_kij[0,2,6]  0.5
QCMATRIX   qc15    
    x_kij[0,3,4]  t_ki[0,3]  0.5
    t_ki[0,3]  x_kij[0,3,4]  0.5
QCMATRIX   qc16    
    x_kij[0,3,5]  t_ki[0,3]  0.5
    t_ki[0,3]  x_kij[0,3,5]  0.5
QCMATRIX   qc17    
    x_kij[0,3,6]  t_ki[0,3]  0.5
    t_ki[0,3]  x_kij[0,3,6]  0.5
ENDATA
